experiment/data/hgs-res/Vrp-Set-Li-n841/Vrp-Set-Li-n841-hgs/0.hgs1.tour
Route #1: 133 217 301 385 469 470 554 638 639 640 641 642 643 644 645 646 647 648 649 650 651 652 653 654 570 569 568 567 566 565 564 563 562 561 560 559 558 557 556 555 471 386 302 218
Route #2: 241 325 409 493 577 661 660 744 828 827 826 825 824 823 822 821 820 819 818 817 816 815 814 813 812 811 810 809 808 807 806 805 804 803 802 718 634 550 551 467 466 383 299 215
Route #3: 132 216 300 384 468 552 553 637 636 635 719 720 721 722 723 724 725 726 727 728 729 730 731 732 733 734 735 736 737 738 739 740 741 742 743 659 658 657 656 655 571 572 573 574 575 576 492 408 324 240
Route #4: 221 304 389 390 391 392 393 394 395 396 397 398 399 400 401 402 403 404 405 406 407 491 490 489 488 487 486 485 484 483 482 481 480 479 478 477 476 475 474 473 472 388 387 303 220 136
Route #5: 49 134 135 219 305 306 307 308 309 310 311 312 313 314 315 316 317 318 319 320 321 322 323 239 238 237 236 235 234 233 232 231 230 229 228 227 226 225 224 223 222 137 53
Route #6: 50 51 52 138 139 140 141 142 143 144 145 146 147 148 149 150 151 152 153 154 155 156 157 158 159 160 161 162 163 164 165 166 167 168 85 86 87 88 89 90 91 7
Route #7: 54 55 56 57 58 59 60 61 62 63 64 65 66 67 68 69 70 71 72 73 74 75 76 77 78 79 80 81 82 83 84 1 2 3 4 5 6
Route #8: 243 327 411 495 579 663 747 748 749 750 751 752 753 754 755 756 673 674 675 676 677 678 679 595 594 593 592 591 590 589 672 671 670 669 668 667 666 665 664 580 496 412 328 244
Route #9: 174 173 172 171 170 169 252 251 250 334 335 336 253 254 255 256 257 258 259 343 342 341 340 339 338 337 420 419 418 417 416 415 414 413 329 330 331 332 333 249 248 247 246 245
Route #10: 93 177 261 345 429 514 598 597 596 680 681 682 683 767 766 765 764 763 762 761 760 759 758 757 840 839 838 837 836 835 834 833 832 831 830 829 745 746 662 578 494 410 326 242
Route #11: 92 175 176 260 344 428 427 426 425 424 423 422 421 504 503 502 501 500 499 498 497 581 582 583 584 585 586 587 588 505 506 507 508 509 510 511 512 513 430 431 347 346 262 178
Route #12: 48 131 130 129 128 127 126 208 207 291 290 289 288 287 286 285 284 283 282 281 280 279 278 277 276 275 274 273 272 271 270 269 268 183 182 100 99 98 97 96 95 94 9 8
Route #13: 212 296 379 463 547 631 630 629 628 627 626 625 624 623 622 621 620 619 618 617 616 615 614 613 612 611 610 609 608 607 606 605 604 603 519 520 521 437 436 435 434 350 266 181
Route #14: 213 297 380 465 549 633 717 801 800 799 798 797 796 795 794 793 792 791 790 789 788 787 786 785 784 783 782 781 780 779 778 777 776 775 774 773 772 771 770 769 768 684 600 599 515 516 432 348 263 179
Route #15: 180 264 265 349 433 517 518 602 601 685 686 687 688 689 690 691 692 693 694 695 696 697 698 699 700 701 702 703 704 705 706 707 708 709 710 711 712 713 714 715 716 632 548 464 381 382 298 214
Route #16: 123 122 206 205 204 203 202 201 200 199 198 197 196 195 194 193 192 191 190 189 188 187 186 185 102 103 104 105 106 107 108 109 110 111 112 113 114 115 116 117 118 119 120 121
Route #17: 101 184 267 351 352 353 354 355 356 440 439 438 522 523 524 525 526 527 528 529 530 531 532 533 534 535 536 537 538 539 540 541 542 543 544 545 546 462 378 294 295 211
Route #18: 47 46 45 44 43 42 41 40 39 38 37 36 35 34 33 32 31 30 29 28 27 26 25 24 23 22 21 20 19 18 17 16 15 14 13 12 11 10
Route #19: 125 210 293 377 461 460 459 458 457 456 455 454 453 452 451 450 449 448 447 446 445 444 443 442 441 357 358 359 360 361 362 363 364 365 366 367 368 369 370 371 372 373 374 375 376 292 209 124
Cost 15641.8
